c 9th DIMACS Implementation Challenge: Shortest Paths
c http://www.dis.uniroma1.it/~challenge9
c TIGER/Line graph USA-road-t.NY
c
p sp 9 24
c graph contains 9 nodes and 24 arcs
c
a 1 6 4
a 6 1 4
a 1 2 6
a 2 1 6
a 2 9 6
a 9 2 6
a 3 6 0.5
a 6 3 0.5
a 3 8 0.5
a 8 3 0.5
a 4 6 5
a 6 4 5
a 4 7 5
a 7 4 5
a 5 7 3
a 7 5 3
a 5 9 4
a 9 5 4
a 6 8 4
a 8 6 4
a 7 8 8
a 8 7 8
a 8 9 5
a 9 8 5
